(declare-const p925 Real)
(declare-const p1075 Real)
(declare-const p975 Real)
(declare-const p65 Real)
(declare-const fee_bl Real)
(declare-const income Real)
(declare-const p6 Real)
(declare-const p85 Real)
(declare-const p4 Real)
(assert (= p4 (* 0.04 (ite (> income 10000) 10000 income))))
(assert (= p6 (ite (> income 10000) (* 0.06 (- (ite (> income 40000) 40000 income) 10000)) 0)))
(assert (= p65 (ite (> income 40000) (* 0.065 (- (ite (> income 60000) 60000 income) 40000)) 0)))
(assert (= p85 (ite (> income 60000) (* 0.085 (- (ite (> income 250000) 250000 income) 60000)) 0)))
(assert (= p925 (ite (> income 250000) (* 0.0925 (- (ite (> income 500000) 500000 income) 250000)) 0)))
(assert (= p975 (ite (> income 500000) (* 0.0975 (- (ite (> income 1000000) 1000000 income) 500000)) 0)))
(assert (= p1075 (ite (> income 1000000) (* 0.1075 (- income 1000000)) 0)))
(assert (= fee_bl (+ (+ (+ (+ (+ (+ p4 p6) p65) p85) p925) p975) p1075)))